Route 1: 0 98 65 75 39 89 54 84 0
Route 2: 0 20 95 12 52 24 16 94 49 9 31 0
Route 3: 0 74 83 46 27 4 7 11 40 17 68 14 0
Route 4: 0 21 19 69 72 48 51 37 38 76 62 0
Route 5: 0 70 33 10 15 92 5 99 0
Route 6: 0 81 87 86 78 2 96 26 18 97 43 0
Route 7: 0 67 82 93 8 25 90 35 0
Route 8: 0 53 36 71 55 47 32 45 79 0
Route 9: 0 29 13 30 63 61 28 60 100 34 6 22 0
Route 10: 0 41 58 50 77 42 1 56 3 44 59 64 57 0
Route 11: 0 80 85 91 23 66 73 88 0
